NAME: toy20_uniform_seed202510287
TYPE: TSP
DIMENSION: 20
EDGE_WEIGHT_TYPE: EUC_2D
NODE_COORD_SECTION
1 755 610
2 931 816
3 932 667
4 580 671
5 613 454
6 626 879
7 483 545
8 345 959
9 378 774
10 488 943
11 700 589
12 338 593
13 610 412
14 960 895
15 726 302
16 873 244
17 77 277
18 166 169
19 903 131
20 855 32
EOF
